CUST NO.,XCOORD.,YCOORD.,DEMAND,READY TIME,DUE DATE,SERVICE TIME
0,35,35,0,0,230,0
1,41,49,10,15,204,10
2,35,17,7,18,202,10
3,55,45,13,54,187,10
4,55,20,19,138,169,10
5,15,30,26,20,199,10
6,25,30,3,76,131,10
7,20,50,5,21,170,10
8,10,43,-9,87,112,10
9,55,60,-16,88,115,10
10,30,60,-16,107,150,10
